(set-info :source |printed by MathSAT|)
(declare-fun call__PRODUCER_CONSUMMER_.ite.next () Int)
(declare-fun call__PRODUCER_CONSUMMER_.o2 () Int)
(declare-fun call__PRODUCER_CONSUMMER_.ite5.next () Int)
(declare-fun _OK_.next () Bool)
(declare-fun call_Sofar.flby.next () Bool)
(declare-fun call__PRODUCER_CONSUMMER_.i.next () Int)
(declare-fun b.next () Int)
(declare-fun param_etat2.next () Bool)
(declare-fun call__PRODUCER_CONSUMMER_.flby4.next () Int)
(declare-fun param_etat3.next () Bool)
(declare-fun call__PRODUCER_CONSUMMER_.ite6.next () Int)
(declare-fun _OK_ () Bool)
(declare-fun b () Int)
(declare-fun param_etat1.next () Bool)
(declare-fun call_Sofar.flby () Bool)
(declare-fun call__PRODUCER_CONSUMMER_.o1.next () Int)
(declare-fun call__PRODUCER_CONSUMMER_.ite4.next () Int)
(declare-fun call__PRODUCER_CONSUMMER_.ite11.next () Int)
(declare-fun call_First.First () Int)
(declare-fun call__PRODUCER_CONSUMMER_.ite5 () Int)
(declare-fun call__PRODUCER_CONSUMMER_.ite8.next () Int)
(declare-fun flby.next () Bool)
(declare-fun call__PRODUCER_CONSUMMER_.garde2.next () Bool)
(declare-fun call_Sofar.Sofar.next () Bool)
(declare-fun call__PRODUCER_CONSUMMER_.flby3 () Int)
(declare-fun call__PRODUCER_CONSUMMER_.b.next () Int)
(declare-fun call__PRODUCER_CONSUMMER_.flby2 () Int)
(declare-fun call__PRODUCER_CONSUMMER_.flby4 () Int)
(declare-fun call_First.First.next () Int)
(declare-fun a.next () Int)
(declare-fun call__PRODUCER_CONSUMMER_.ite9.next () Int)
(declare-fun o2.next () Int)
(declare-fun call__PRODUCER_CONSUMMER_.ite6 () Int)
(declare-fun call__PRODUCER_CONSUMMER_.i () Int)
(declare-fun o1 () Int)
(declare-fun call_First.flby.next () Int)
(declare-fun call__PRODUCER_CONSUMMER_.garde3.next () Bool)
(declare-fun call__PRODUCER_CONSUMMER_.ite2.next () Int)
(declare-fun call__PRODUCER_CONSUMMER_.ite4 () Int)
(declare-fun call__PRODUCER_CONSUMMER_.garde1.next () Bool)
(declare-fun call__PRODUCER_CONSUMMER_.flby3.next () Int)
(declare-fun param_etat2 () Bool)
(declare-fun i.next () Int)
(declare-fun call__PRODUCER_CONSUMMER_.o1 () Int)
(declare-fun param_etat1 () Bool)
(declare-fun call_Sofar.Sofar () Bool)
(declare-fun call__PRODUCER_CONSUMMER_.ite3.next () Int)
(declare-fun call__PRODUCER_CONSUMMER_.flby.next () Int)
(declare-fun call__PRODUCER_CONSUMMER_.ite7 () Int)
(declare-fun flby () Bool)
(declare-fun call__PRODUCER_CONSUMMER_.a.next () Int)
(declare-fun o2 () Int)
(declare-fun env () Bool)
(declare-fun call__PRODUCER_CONSUMMER_.flby2.next () Int)
(declare-fun call__PRODUCER_CONSUMMER_.a () Int)
(declare-fun i () Int)
(declare-fun env.next () Bool)
(declare-fun a () Int)
(declare-fun call__PRODUCER_CONSUMMER_.o2.next () Int)
(declare-fun call__PRODUCER_CONSUMMER_.ite10.next () Int)
(declare-fun call__PRODUCER_CONSUMMER_.ite7.next () Int)
(declare-fun call__PRODUCER_CONSUMMER_.flby5 () Int)
(declare-fun call_First.flby () Int)
(declare-fun call__PRODUCER_CONSUMMER_.b () Int)
(declare-fun call__PRODUCER_CONSUMMER_.ite3 () Int)
(declare-fun call__PRODUCER_CONSUMMER_.flby () Int)
(declare-fun call__PRODUCER_CONSUMMER_.flby5.next () Int)
(declare-fun o1.next () Int)
(define-fun .def_602 () Bool (= call_First.flby.next call_First.First.next))
(define-fun .def_600 () Bool (= call_Sofar.flby.next call_Sofar.Sofar.next))
(define-fun .def_598 () Bool (= call__PRODUCER_CONSUMMER_.flby5.next call__PRODUCER_CONSUMMER_.o2.next))
(define-fun .def_596 () Bool (= call__PRODUCER_CONSUMMER_.flby4.next call__PRODUCER_CONSUMMER_.o1.next))
(define-fun .def_594 () Bool (= call__PRODUCER_CONSUMMER_.flby3.next call__PRODUCER_CONSUMMER_.a.next))
(define-fun .def_592 () Bool (= call__PRODUCER_CONSUMMER_.flby2.next call__PRODUCER_CONSUMMER_.b.next))
(define-fun .def_590 () Bool (= call__PRODUCER_CONSUMMER_.flby.next call__PRODUCER_CONSUMMER_.i.next))
(define-fun .def_586 () Bool (= call__PRODUCER_CONSUMMER_.ite4.next call__PRODUCER_CONSUMMER_.ite6.next))
(define-fun .def_439 () Bool (not param_etat2.next))
(define-fun .def_587 () Bool (or .def_439 .def_586))
(define-fun .def_584 () Bool (= call__PRODUCER_CONSUMMER_.ite5.next call__PRODUCER_CONSUMMER_.ite6.next))
(define-fun .def_585 () Bool (or param_etat2.next .def_584))
(define-fun .def_588 () Bool (and .def_585 .def_587))
(define-fun .def_580 () Bool (= call__PRODUCER_CONSUMMER_.ite3.next call__PRODUCER_CONSUMMER_.ite7.next))
(define-fun .def_428 () Bool (not param_etat1.next))
(define-fun .def_581 () Bool (or .def_428 .def_580))
(define-fun .def_578 () Bool (= call__PRODUCER_CONSUMMER_.ite7.next call__PRODUCER_CONSUMMER_.ite6.next))
(define-fun .def_579 () Bool (or param_etat1.next .def_578))
(define-fun .def_582 () Bool (and .def_579 .def_581))
(define-fun .def_572 () Bool (<= call_First.First.next 0))
(define-fun .def_573 () Bool (not .def_572))
(define-fun .def_570 () Bool (and flby.next call_Sofar.Sofar.next))
(define-fun .def_574 () Bool (and .def_570 .def_573))
(define-fun .def_575 () Bool (= env.next .def_574))
(define-fun .def_567 () Bool (= o2.next call__PRODUCER_CONSUMMER_.o2.next))
(define-fun .def_563 () Bool (= o1.next call__PRODUCER_CONSUMMER_.o1.next))
(define-fun .def_559 () Bool (= a.next call__PRODUCER_CONSUMMER_.a.next))
(define-fun .def_555 () Bool (= b.next call__PRODUCER_CONSUMMER_.b.next))
(define-fun .def_551 () Bool (= i.next call__PRODUCER_CONSUMMER_.i.next))
(define-fun .def_547 () Bool (<= 0 i.next))
(define-fun .def_545 () Bool (not env.next))
(define-fun .def_548 () Bool (or .def_545 .def_547))
(define-fun .def_549 () Bool (= _OK_.next .def_548))
(define-fun .def_552 () Bool (and .def_549 .def_551))
(define-fun .def_556 () Bool (and .def_552 .def_555))
(define-fun .def_560 () Bool (and .def_556 .def_559))
(define-fun .def_564 () Bool (and .def_560 .def_563))
(define-fun .def_568 () Bool (and .def_564 .def_567))
(define-fun .def_576 () Bool (and .def_568 .def_575))
(define-fun .def_583 () Bool (and .def_576 .def_582))
(define-fun .def_589 () Bool (and .def_583 .def_588))
(define-fun .def_591 () Bool (and .def_589 .def_590))
(define-fun .def_593 () Bool (and .def_591 .def_592))
(define-fun .def_595 () Bool (and .def_593 .def_594))
(define-fun .def_597 () Bool (and .def_595 .def_596))
(define-fun .def_599 () Bool (and .def_597 .def_598))
(define-fun .def_601 () Bool (and .def_599 .def_600))
(define-fun .def_603 () Bool (and .def_601 .def_602))
(define-fun .def_419 () Bool (= call_First.flby call_First.First))
(define-fun .def_417 () Bool (= call_Sofar.flby call_Sofar.Sofar))
(define-fun .def_415 () Bool (= call__PRODUCER_CONSUMMER_.flby5 call__PRODUCER_CONSUMMER_.o2))
(define-fun .def_413 () Bool (= call__PRODUCER_CONSUMMER_.flby4 call__PRODUCER_CONSUMMER_.o1))
(define-fun .def_411 () Bool (= call__PRODUCER_CONSUMMER_.a call__PRODUCER_CONSUMMER_.flby3))
(define-fun .def_409 () Bool (= call__PRODUCER_CONSUMMER_.flby2 call__PRODUCER_CONSUMMER_.b))
(define-fun .def_407 () Bool (= call__PRODUCER_CONSUMMER_.flby call__PRODUCER_CONSUMMER_.i))
(define-fun .def_403 () Bool (= call__PRODUCER_CONSUMMER_.ite6 call__PRODUCER_CONSUMMER_.ite4))
(define-fun .def_322 () Bool (not param_etat2))
(define-fun .def_404 () Bool (or .def_322 .def_403))
(define-fun .def_400 () Bool (= call__PRODUCER_CONSUMMER_.ite6 call__PRODUCER_CONSUMMER_.ite5))
(define-fun .def_401 () Bool (or param_etat2 .def_400))
(define-fun .def_405 () Bool (and .def_401 .def_404))
(define-fun .def_395 () Bool (= call__PRODUCER_CONSUMMER_.ite7 call__PRODUCER_CONSUMMER_.ite3))
(define-fun .def_313 () Bool (not param_etat1))
(define-fun .def_396 () Bool (or .def_313 .def_395))
(define-fun .def_392 () Bool (= call__PRODUCER_CONSUMMER_.ite7 call__PRODUCER_CONSUMMER_.ite6))
(define-fun .def_393 () Bool (or param_etat1 .def_392))
(define-fun .def_397 () Bool (and .def_393 .def_396))
(define-fun .def_385 () Bool (<= call_First.First 0))
(define-fun .def_386 () Bool (not .def_385))
(define-fun .def_383 () Bool (and flby call_Sofar.Sofar))
(define-fun .def_387 () Bool (and .def_383 .def_386))
(define-fun .def_388 () Bool (= env .def_387))
(define-fun .def_380 () Bool (= o2 call__PRODUCER_CONSUMMER_.o2))
(define-fun .def_376 () Bool (= o1 call__PRODUCER_CONSUMMER_.o1))
(define-fun .def_372 () Bool (= call__PRODUCER_CONSUMMER_.a a))
(define-fun .def_369 () Bool (= b call__PRODUCER_CONSUMMER_.b))
(define-fun .def_365 () Bool (= i call__PRODUCER_CONSUMMER_.i))
(define-fun .def_361 () Bool (<= 0 i))
(define-fun .def_359 () Bool (not env))
(define-fun .def_362 () Bool (or .def_359 .def_361))
(define-fun .def_363 () Bool (= _OK_ .def_362))
(define-fun .def_366 () Bool (and .def_363 .def_365))
(define-fun .def_370 () Bool (and .def_366 .def_369))
(define-fun .def_373 () Bool (and .def_370 .def_372))
(define-fun .def_377 () Bool (and .def_373 .def_376))
(define-fun .def_381 () Bool (and .def_377 .def_380))
(define-fun .def_389 () Bool (and .def_381 .def_388))
(define-fun .def_398 () Bool (and .def_389 .def_397))
(define-fun .def_406 () Bool (and .def_398 .def_405))
(define-fun .def_408 () Bool (and .def_406 .def_407))
(define-fun .def_410 () Bool (and .def_408 .def_409))
(define-fun .def_412 () Bool (and .def_410 .def_411))
(define-fun .def_414 () Bool (and .def_412 .def_413))
(define-fun .def_416 () Bool (and .def_414 .def_415))
(define-fun .def_418 () Bool (and .def_416 .def_417))
(define-fun .def_420 () Bool (and .def_418 .def_419))
(define-fun .def_604 () Bool (and .def_420 .def_603))
(define-fun .def_541 () Bool (= call_First.First call_First.flby.next))
(define-fun .def_534 () Bool (and param_etat2.next param_etat3.next))
(define-fun .def_535 () Bool (not .def_534))
(define-fun .def_536 () Bool (and call_Sofar.Sofar .def_535))
(define-fun .def_538 () Bool (= .def_536 call_Sofar.flby.next))
(define-fun .def_532 () Bool (= call__PRODUCER_CONSUMMER_.ite11.next call__PRODUCER_CONSUMMER_.flby5.next))
(define-fun .def_529 () Bool (= call__PRODUCER_CONSUMMER_.ite9.next call__PRODUCER_CONSUMMER_.flby4.next))
(define-fun .def_526 () Bool (= call__PRODUCER_CONSUMMER_.a call__PRODUCER_CONSUMMER_.flby3.next))
(define-fun .def_523 () Bool (= call__PRODUCER_CONSUMMER_.ite7.next call__PRODUCER_CONSUMMER_.flby2.next))
(define-fun .def_519 () Bool (= call__PRODUCER_CONSUMMER_.ite2.next call__PRODUCER_CONSUMMER_.flby.next))
(define-fun .def_513 () Bool (<= 1 call__PRODUCER_CONSUMMER_.b))
(define-fun .def_516 () Bool (= call__PRODUCER_CONSUMMER_.garde3.next .def_513))
(define-fun .def_514 () Bool (= call__PRODUCER_CONSUMMER_.garde2.next .def_513))
(define-fun .def_510 () Bool (<= 1 call__PRODUCER_CONSUMMER_.i))
(define-fun .def_511 () Bool (= call__PRODUCER_CONSUMMER_.garde1.next .def_510))
(define-fun .def_504 () Int (* (- 1) call__PRODUCER_CONSUMMER_.ite10.next))
(define-fun .def_505 () Int (+ call__PRODUCER_CONSUMMER_.o2 .def_504))
(define-fun .def_506 () Bool (= .def_505 (- 1)))
(define-fun .def_487 () Bool (not call__PRODUCER_CONSUMMER_.garde3.next))
(define-fun .def_507 () Bool (or .def_487 .def_506))
(define-fun .def_502 () Bool (= call__PRODUCER_CONSUMMER_.o2 call__PRODUCER_CONSUMMER_.ite10.next))
(define-fun .def_503 () Bool (or call__PRODUCER_CONSUMMER_.garde3.next .def_502))
(define-fun .def_508 () Bool (and .def_503 .def_507))
(define-fun .def_496 () Int (* (- 1) call__PRODUCER_CONSUMMER_.ite8.next))
(define-fun .def_497 () Int (+ call__PRODUCER_CONSUMMER_.o1 .def_496))
(define-fun .def_498 () Bool (= .def_497 (- 1)))
(define-fun .def_476 () Bool (not call__PRODUCER_CONSUMMER_.garde2.next))
(define-fun .def_499 () Bool (or .def_476 .def_498))
(define-fun .def_494 () Bool (= call__PRODUCER_CONSUMMER_.o1 call__PRODUCER_CONSUMMER_.ite8.next))
(define-fun .def_495 () Bool (or call__PRODUCER_CONSUMMER_.garde2.next .def_494))
(define-fun .def_500 () Bool (and .def_495 .def_499))
(define-fun .def_490 () Bool (= call__PRODUCER_CONSUMMER_.b call__PRODUCER_CONSUMMER_.ite5.next))
(define-fun .def_491 () Bool (or call__PRODUCER_CONSUMMER_.garde3.next .def_490))
(define-fun .def_483 () Int (* (- 1) call__PRODUCER_CONSUMMER_.ite5.next))
(define-fun .def_484 () Int (+ call__PRODUCER_CONSUMMER_.b .def_483))
(define-fun .def_485 () Bool (= .def_484 1))
(define-fun .def_488 () Bool (or .def_485 .def_487))
(define-fun .def_479 () Bool (= call__PRODUCER_CONSUMMER_.b call__PRODUCER_CONSUMMER_.ite4.next))
(define-fun .def_480 () Bool (or call__PRODUCER_CONSUMMER_.garde2.next .def_479))
(define-fun .def_472 () Int (* (- 1) call__PRODUCER_CONSUMMER_.ite4.next))
(define-fun .def_473 () Int (+ call__PRODUCER_CONSUMMER_.b .def_472))
(define-fun .def_474 () Bool (= .def_473 1))
(define-fun .def_477 () Bool (or .def_474 .def_476))
(define-fun .def_466 () Int (* (- 1) call__PRODUCER_CONSUMMER_.ite3.next))
(define-fun .def_467 () Int (+ call__PRODUCER_CONSUMMER_.b .def_466))
(define-fun .def_468 () Bool (= .def_467 (- 1)))
(define-fun .def_459 () Bool (not call__PRODUCER_CONSUMMER_.garde1.next))
(define-fun .def_469 () Bool (or .def_459 .def_468))
(define-fun .def_464 () Bool (= call__PRODUCER_CONSUMMER_.b call__PRODUCER_CONSUMMER_.ite3.next))
(define-fun .def_465 () Bool (or call__PRODUCER_CONSUMMER_.garde1.next .def_464))
(define-fun .def_470 () Bool (and .def_465 .def_469))
(define-fun .def_478 () Bool (and .def_470 .def_477))
(define-fun .def_481 () Bool (and .def_478 .def_480))
(define-fun .def_489 () Bool (and .def_481 .def_488))
(define-fun .def_492 () Bool (and .def_489 .def_491))
(define-fun .def_456 () Int (* (- 1) call__PRODUCER_CONSUMMER_.ite.next))
(define-fun .def_457 () Int (+ call__PRODUCER_CONSUMMER_.i .def_456))
(define-fun .def_458 () Bool (= .def_457 1))
(define-fun .def_460 () Bool (or .def_458 .def_459))
(define-fun .def_453 () Bool (= call__PRODUCER_CONSUMMER_.i call__PRODUCER_CONSUMMER_.ite.next))
(define-fun .def_455 () Bool (or .def_453 call__PRODUCER_CONSUMMER_.garde1.next))
(define-fun .def_461 () Bool (and .def_455 .def_460))
(define-fun .def_449 () Bool (not param_etat3.next))
(define-fun .def_448 () Bool (= call__PRODUCER_CONSUMMER_.ite11.next call__PRODUCER_CONSUMMER_.ite10.next))
(define-fun .def_450 () Bool (or .def_448 .def_449))
(define-fun .def_444 () Bool (= call__PRODUCER_CONSUMMER_.o2 call__PRODUCER_CONSUMMER_.ite11.next))
(define-fun .def_446 () Bool (or .def_444 param_etat3.next))
(define-fun .def_451 () Bool (and .def_446 .def_450))
(define-fun .def_438 () Bool (= call__PRODUCER_CONSUMMER_.ite9.next call__PRODUCER_CONSUMMER_.ite8.next))
(define-fun .def_440 () Bool (or .def_438 .def_439))
(define-fun .def_434 () Bool (= call__PRODUCER_CONSUMMER_.o1 call__PRODUCER_CONSUMMER_.ite9.next))
(define-fun .def_436 () Bool (or .def_434 param_etat2.next))
(define-fun .def_441 () Bool (and .def_436 .def_440))
(define-fun .def_427 () Bool (= call__PRODUCER_CONSUMMER_.ite2.next call__PRODUCER_CONSUMMER_.ite.next))
(define-fun .def_429 () Bool (or .def_427 .def_428))
(define-fun .def_423 () Bool (= call__PRODUCER_CONSUMMER_.i call__PRODUCER_CONSUMMER_.ite2.next))
(define-fun .def_425 () Bool (or .def_423 param_etat1.next))
(define-fun .def_430 () Bool (and .def_425 .def_429))
(define-fun .def_432 () Bool (and .def_430 flby.next))
(define-fun .def_442 () Bool (and .def_432 .def_441))
(define-fun .def_452 () Bool (and .def_442 .def_451))
(define-fun .def_462 () Bool (and .def_452 .def_461))
(define-fun .def_493 () Bool (and .def_462 .def_492))
(define-fun .def_501 () Bool (and .def_493 .def_500))
(define-fun .def_509 () Bool (and .def_501 .def_508))
(define-fun .def_512 () Bool (and .def_509 .def_511))
(define-fun .def_515 () Bool (and .def_512 .def_514))
(define-fun .def_517 () Bool (and .def_515 .def_516))
(define-fun .def_520 () Bool (and .def_517 .def_519))
(define-fun .def_524 () Bool (and .def_520 .def_523))
(define-fun .def_527 () Bool (and .def_524 .def_526))
(define-fun .def_530 () Bool (and .def_527 .def_529))
(define-fun .def_533 () Bool (and .def_530 .def_532))
(define-fun .def_539 () Bool (and .def_533 .def_538))
(define-fun .def_542 () Bool (and .def_539 .def_541))
(define-fun .def_605 () Bool (and .def_542 .def_604))
(assert .def_605)
